\ Model qkp
\ LP format - for model browsing. Use MPS format to capture full model detail.
Maximize
  33 x_1 + 48 x_3 + 2 x_4 + 33 x_5 + 4 x_6 + 33 x_7 + 21 x_8 + 8 x_9
   + 32 x_10 + 32 x_11 + 37 x_13 + 50 x_14 + 8 x_15 + x_16 + 3 x_17
   + 37 x_18 + 45 x_19 + 21 x_20 + 24 x_21 + 41 x_22 + 29 x_24 + 2 x_26
   + 3 x_29 + 15 x_30 + 5 x_31 + 3 x_32 + 35 x_33 + 3 x_34 + 15 x_35
   + 23 x_37 + 19 x_38 + 47 x_39 + 48 x_40 + 27 x_41 + 23 x_42 + 30 x_45
   + 11 x_46 + 50 x_48 + 23 x_49 + 27 x_50 + [ 4 x_1 * x_2 + 140 x_1 * x_3
   + 80 x_1 * x_4 + 88 x_1 * x_5 + 92 x_1 * x_6 + 68 x_1 * x_7
   + 40 x_1 * x_8 + 56 x_1 * x_9 + 24 x_1 * x_10 + 64 x_1 * x_13
   + 24 x_1 * x_15 + 196 x_1 * x_16 + 36 x_1 * x_17 + 188 x_1 * x_18
   + 4 x_1 * x_19 + 172 x_1 * x_20 + 104 x_1 * x_24 + 196 x_1 * x_27
   + 148 x_1 * x_28 + 84 x_1 * x_30 + 60 x_1 * x_31 + 60 x_1 * x_32
   + 76 x_1 * x_34 + 104 x_1 * x_35 + 172 x_1 * x_36 + 192 x_1 * x_38
   + 108 x_1 * x_39 + 40 x_1 * x_40 + 36 x_1 * x_41 + 136 x_1 * x_44
   + 48 x_1 * x_45 + 124 x_1 * x_46 + 120 x_1 * x_47 + 108 x_1 * x_48
   + 112 x_1 * x_50 + 176 x_2 * x_3 + 28 x_2 * x_4 + 120 x_2 * x_5
   + 120 x_2 * x_8 + 124 x_2 * x_9 + 80 x_2 * x_10 + 56 x_2 * x_12
   + 100 x_2 * x_13 + 64 x_2 * x_16 + 168 x_2 * x_18 + 64 x_2 * x_19
   + 92 x_2 * x_21 + 152 x_2 * x_22 + 104 x_2 * x_23 + 60 x_2 * x_25
   + 44 x_2 * x_26 + 92 x_2 * x_27 + 164 x_2 * x_28 + 24 x_2 * x_30
   + 16 x_2 * x_31 + 76 x_2 * x_32 + 172 x_2 * x_33 + 4 x_2 * x_36
   + 168 x_2 * x_37 + 176 x_2 * x_38 + 44 x_2 * x_39 + 88 x_2 * x_40
   + 32 x_2 * x_41 + 76 x_2 * x_42 + 20 x_2 * x_43 + 180 x_2 * x_44
   + 12 x_2 * x_46 + 72 x_2 * x_47 + 84 x_2 * x_48 + 164 x_2 * x_49
   + 180 x_2 * x_50 + 68 x_3 * x_5 + 60 x_3 * x_6 + 200 x_3 * x_7
   + 192 x_3 * x_9 + 164 x_3 * x_11 + 84 x_3 * x_12 + 132 x_3 * x_13
   + 128 x_3 * x_16 + 120 x_3 * x_17 + 80 x_3 * x_19 + 84 x_3 * x_20
   + 120 x_3 * x_22 + 60 x_3 * x_23 + 136 x_3 * x_24 + 60 x_3 * x_25
   + 56 x_3 * x_28 + 16 x_3 * x_29 + 80 x_3 * x_30 + 124 x_3 * x_32
   + 124 x_3 * x_34 + 144 x_3 * x_36 + 56 x_3 * x_37 + 44 x_3 * x_38
   + 24 x_3 * x_39 + 8 x_3 * x_40 + 36 x_3 * x_42 + 200 x_3 * x_43
   + 160 x_3 * x_44 + 192 x_3 * x_45 + 16 x_3 * x_46 + 60 x_3 * x_47
   + 164 x_3 * x_48 + 176 x_3 * x_50 + 40 x_4 * x_5 + 152 x_4 * x_6
   + 156 x_4 * x_7 + 36 x_4 * x_9 + 112 x_4 * x_10 + 108 x_4 * x_11
   + 72 x_4 * x_13 + 8 x_4 * x_14 + 192 x_4 * x_15 + 16 x_4 * x_16
   + 4 x_4 * x_17 + 140 x_4 * x_18 + 4 x_4 * x_19 + 164 x_4 * x_20
   + 100 x_4 * x_21 + 124 x_4 * x_22 + 76 x_4 * x_23 + 144 x_4 * x_24
   + 172 x_4 * x_25 + 40 x_4 * x_26 + 100 x_4 * x_27 + 56 x_4 * x_28
   + 84 x_4 * x_29 + 136 x_4 * x_30 + 96 x_4 * x_31 + 36 x_4 * x_32
   + 16 x_4 * x_34 + 152 x_4 * x_35 + 148 x_4 * x_36 + 92 x_4 * x_38
   + 52 x_4 * x_40 + 84 x_4 * x_41 + 44 x_4 * x_42 + 128 x_4 * x_43
   + 88 x_4 * x_45 + 184 x_4 * x_47 + 180 x_4 * x_48 + 108 x_4 * x_49
   + 148 x_4 * x_50 + 184 x_5 * x_6 + 124 x_5 * x_7 + 144 x_5 * x_8
   + 48 x_5 * x_9 + 144 x_5 * x_10 + 16 x_5 * x_11 + 112 x_5 * x_12
   + 56 x_5 * x_13 + 24 x_5 * x_15 + 68 x_5 * x_16 + 196 x_5 * x_17
   + 108 x_5 * x_18 + 180 x_5 * x_19 + 156 x_5 * x_20 + 124 x_5 * x_21
   + 172 x_5 * x_23 + 124 x_5 * x_25 + 72 x_5 * x_27 + 40 x_5 * x_28
   + 20 x_5 * x_30 + 128 x_5 * x_31 + 200 x_5 * x_32 + 200 x_5 * x_33
   + 24 x_5 * x_34 + 4 x_5 * x_35 + 160 x_5 * x_36 + 20 x_5 * x_38
   + 152 x_5 * x_39 + 104 x_5 * x_40 + 96 x_5 * x_41 + 132 x_5 * x_42
   + 80 x_5 * x_43 + 184 x_5 * x_45 + 144 x_5 * x_47 + 160 x_5 * x_49
   + 56 x_6 * x_7 + 100 x_6 * x_8 + 176 x_6 * x_9 + 76 x_6 * x_10
   + 52 x_6 * x_11 + 88 x_6 * x_12 + 156 x_6 * x_13 + 24 x_6 * x_14
   + 80 x_6 * x_15 + 40 x_6 * x_16 + 180 x_6 * x_17 + 40 x_6 * x_19
   + 68 x_6 * x_20 + 160 x_6 * x_22 + 56 x_6 * x_23 + 80 x_6 * x_27
   + 24 x_6 * x_29 + 24 x_6 * x_30 + 148 x_6 * x_31 + 188 x_6 * x_32
   + 52 x_6 * x_33 + 76 x_6 * x_36 + 4 x_6 * x_37 + 124 x_6 * x_38
   + 84 x_6 * x_39 + 124 x_6 * x_40 + 200 x_6 * x_43 + 176 x_6 * x_44
   + 76 x_6 * x_45 + 160 x_6 * x_47 + 64 x_6 * x_48 + 120 x_6 * x_49
   + 104 x_7 * x_8 + 32 x_7 * x_9 + 76 x_7 * x_11 + 20 x_7 * x_12
   + 40 x_7 * x_13 + 92 x_7 * x_14 + 196 x_7 * x_17 + 96 x_7 * x_19
   + 72 x_7 * x_20 + 44 x_7 * x_21 + 196 x_7 * x_23 + 116 x_7 * x_27
   + 4 x_7 * x_28 + 60 x_7 * x_29 + 12 x_7 * x_30 + 136 x_7 * x_32
   + 32 x_7 * x_33 + 4 x_7 * x_34 + 32 x_7 * x_36 + 80 x_7 * x_38
   + 156 x_7 * x_40 + 44 x_7 * x_41 + 44 x_7 * x_42 + 140 x_7 * x_43
   + 100 x_7 * x_44 + 192 x_7 * x_45 + 92 x_7 * x_46 + 160 x_7 * x_48
   + 188 x_8 * x_9 + 44 x_8 * x_10 + 8 x_8 * x_11 + 200 x_8 * x_12
   + 128 x_8 * x_13 + 124 x_8 * x_15 + 172 x_8 * x_16 + 84 x_8 * x_18
   + 144 x_8 * x_19 + 52 x_8 * x_21 + 8 x_8 * x_23 + 92 x_8 * x_24
   + 44 x_8 * x_25 + 76 x_8 * x_26 + 68 x_8 * x_27 + 80 x_8 * x_28
   + 108 x_8 * x_29 + 56 x_8 * x_31 + 4 x_8 * x_32 + 40 x_8 * x_33
   + 188 x_8 * x_34 + 112 x_8 * x_35 + 44 x_8 * x_36 + 116 x_8 * x_37
   + 28 x_8 * x_38 + 196 x_8 * x_40 + 168 x_8 * x_41 + 112 x_8 * x_42
   + 160 x_8 * x_43 + 136 x_8 * x_44 + 164 x_8 * x_45 + 164 x_8 * x_46
   + 136 x_8 * x_47 + 168 x_8 * x_48 + 84 x_8 * x_49 + 136 x_8 * x_50
   + 116 x_9 * x_10 + 184 x_9 * x_11 + 56 x_9 * x_12 + 56 x_9 * x_13
   + 124 x_9 * x_14 + 100 x_9 * x_15 + 152 x_9 * x_16 + 12 x_9 * x_17
   + 112 x_9 * x_18 + 76 x_9 * x_19 + 120 x_9 * x_20 + 80 x_9 * x_22
   + 48 x_9 * x_23 + 8 x_9 * x_24 + 188 x_9 * x_25 + 24 x_9 * x_26
   + 28 x_9 * x_27 + 192 x_9 * x_28 + 76 x_9 * x_32 + 184 x_9 * x_33
   + 116 x_9 * x_34 + 188 x_9 * x_37 + 196 x_9 * x_38 + 72 x_9 * x_39
   + 80 x_9 * x_40 + 28 x_9 * x_41 + 8 x_9 * x_42 + 104 x_9 * x_43
   + 108 x_9 * x_45 + 176 x_9 * x_47 + 152 x_9 * x_50 + 92 x_10 * x_11
   + 40 x_10 * x_15 + 148 x_10 * x_16 + 80 x_10 * x_17 + 80 x_10 * x_18
   + 124 x_10 * x_20 + 4 x_10 * x_22 + 108 x_10 * x_23 + 160 x_10 * x_24
   + 168 x_10 * x_25 + 184 x_10 * x_26 + 88 x_10 * x_27 + 96 x_10 * x_28
   + 12 x_10 * x_29 + 144 x_10 * x_30 + 192 x_10 * x_31 + 108 x_10 * x_32
   + 164 x_10 * x_34 + 108 x_10 * x_35 + 124 x_10 * x_36 + 200 x_10 * x_37
   + 84 x_10 * x_38 + 180 x_10 * x_39 + 4 x_10 * x_40 + 104 x_10 * x_41
   + 4 x_10 * x_42 + 44 x_10 * x_43 + 4 x_10 * x_44 + 24 x_10 * x_48
   + 76 x_10 * x_49 + 36 x_11 * x_13 + 116 x_11 * x_14 + 116 x_11 * x_15
   + 128 x_11 * x_17 + 148 x_11 * x_18 + 132 x_11 * x_19 + 148 x_11 * x_21
   + 68 x_11 * x_22 + 124 x_11 * x_24 + 76 x_11 * x_25 + 184 x_11 * x_26
   + 152 x_11 * x_27 + 88 x_11 * x_29 + 128 x_11 * x_30 + 156 x_11 * x_31
   + 84 x_11 * x_32 + 28 x_11 * x_33 + 104 x_11 * x_35 + 160 x_11 * x_36
   + 164 x_11 * x_37 + 120 x_11 * x_38 + 56 x_11 * x_39 + 160 x_11 * x_41
   + 88 x_11 * x_42 + 72 x_11 * x_43 + 112 x_11 * x_44 + 192 x_11 * x_45
   + 96 x_11 * x_46 + 120 x_11 * x_50 + 96 x_12 * x_13 + 36 x_12 * x_14
   + 80 x_12 * x_15 + 16 x_12 * x_16 + 168 x_12 * x_17 + 12 x_12 * x_18
   + 64 x_12 * x_20 + 64 x_12 * x_21 + 68 x_12 * x_24 + 164 x_12 * x_25
   + 72 x_12 * x_26 + 128 x_12 * x_27 + 12 x_12 * x_29 + 28 x_12 * x_30
   + 84 x_12 * x_31 + 24 x_12 * x_32 + 20 x_12 * x_33 + 28 x_12 * x_35
   + 24 x_12 * x_36 + 192 x_12 * x_37 + 136 x_12 * x_38 + 64 x_12 * x_39
   + 120 x_12 * x_41 + 160 x_12 * x_43 + 180 x_12 * x_44 + 176 x_12 * x_45
   + 148 x_12 * x_47 + 200 x_12 * x_48 + 68 x_12 * x_50 + 52 x_13 * x_14
   + 164 x_13 * x_16 + 196 x_13 * x_17 + 108 x_13 * x_20 + 112 x_13 * x_21
   + 8 x_13 * x_23 + 80 x_13 * x_24 + 68 x_13 * x_25 + 48 x_13 * x_26
   + 104 x_13 * x_27 + 148 x_13 * x_28 + 140 x_13 * x_29 + 140 x_13 * x_30
   + 64 x_13 * x_31 + 200 x_13 * x_32 + 188 x_13 * x_34 + 112 x_13 * x_35
   + 16 x_13 * x_36 + 32 x_13 * x_37 + 96 x_13 * x_38 + 100 x_13 * x_39
   + 60 x_13 * x_43 + 148 x_13 * x_44 + 160 x_13 * x_45 + 52 x_13 * x_46
   + 176 x_13 * x_47 + 180 x_13 * x_49 + 20 x_13 * x_50 + 68 x_14 * x_16
   + 100 x_14 * x_17 + 104 x_14 * x_18 + 92 x_14 * x_19 + 68 x_14 * x_20
   + 164 x_14 * x_21 + 156 x_14 * x_23 + 192 x_14 * x_25 + 144 x_14 * x_27
   + 100 x_14 * x_29 + 72 x_14 * x_30 + 136 x_14 * x_33 + 152 x_14 * x_37
   + 56 x_14 * x_38 + 76 x_14 * x_39 + 148 x_14 * x_40 + 132 x_14 * x_41
   + 48 x_14 * x_43 + 40 x_14 * x_44 + 200 x_14 * x_45 + 124 x_14 * x_46
   + 128 x_14 * x_47 + 116 x_14 * x_48 + 44 x_14 * x_49 + 80 x_14 * x_50
   + 120 x_15 * x_17 + 152 x_15 * x_18 + 80 x_15 * x_19 + 104 x_15 * x_21
   + 96 x_15 * x_22 + 92 x_15 * x_25 + 160 x_15 * x_27 + 24 x_15 * x_28
   + 144 x_15 * x_29 + 44 x_15 * x_30 + 156 x_15 * x_31 + 124 x_15 * x_32
   + 40 x_15 * x_34 + 164 x_15 * x_36 + 152 x_15 * x_37 + 188 x_15 * x_38
   + 160 x_15 * x_39 + 16 x_15 * x_40 + 196 x_15 * x_41 + 124 x_15 * x_42
   + 4 x_15 * x_43 + 60 x_15 * x_44 + 72 x_15 * x_45 + 28 x_15 * x_46
   + 40 x_15 * x_47 + 148 x_15 * x_48 + 156 x_15 * x_49 + 24 x_15 * x_50
   + 184 x_16 * x_17 + 24 x_16 * x_18 + 196 x_16 * x_19 + 24 x_16 * x_20
   + 120 x_16 * x_22 + 152 x_16 * x_23 + 172 x_16 * x_24 + 96 x_16 * x_26
   + 132 x_16 * x_27 + 88 x_16 * x_28 + 24 x_16 * x_29 + 4 x_16 * x_31
   + 52 x_16 * x_32 + 20 x_16 * x_33 + 148 x_16 * x_34 + 52 x_16 * x_38
   + 196 x_16 * x_40 + 4 x_16 * x_41 + 52 x_16 * x_44 + 8 x_16 * x_46
   + 192 x_16 * x_47 + 192 x_16 * x_48 + 96 x_17 * x_19 + 20 x_17 * x_20
   + 16 x_17 * x_21 + 124 x_17 * x_22 + 20 x_17 * x_23 + 88 x_17 * x_24
   + 112 x_17 * x_25 + 112 x_17 * x_26 + 36 x_17 * x_27 + 164 x_17 * x_28
   + 4 x_17 * x_29 + 88 x_17 * x_30 + 16 x_17 * x_32 + 112 x_17 * x_33
   + 64 x_17 * x_34 + 92 x_17 * x_35 + 192 x_17 * x_36 + 192 x_17 * x_38
   + 156 x_17 * x_40 + 148 x_17 * x_41 + 80 x_17 * x_42 + 196 x_17 * x_44
   + 112 x_17 * x_45 + 84 x_17 * x_46 + 128 x_17 * x_47 + 188 x_17 * x_48
   + 128 x_17 * x_49 + 96 x_17 * x_50 + 164 x_18 * x_20 + 20 x_18 * x_21
   + 132 x_18 * x_24 + 12 x_18 * x_25 + 116 x_18 * x_27 + 116 x_18 * x_29
   + 124 x_18 * x_30 + 4 x_18 * x_31 + 180 x_18 * x_32 + 28 x_18 * x_33
   + 148 x_18 * x_34 + 176 x_18 * x_36 + 100 x_18 * x_37 + 184 x_18 * x_38
   + 48 x_18 * x_39 + 96 x_18 * x_41 + 32 x_18 * x_44 + 64 x_18 * x_45
   + 20 x_18 * x_46 + 112 x_18 * x_47 + 8 x_18 * x_48 + 152 x_18 * x_49
   + 112 x_18 * x_50 + 184 x_19 * x_20 + 36 x_19 * x_21 + 176 x_19 * x_23
   + 56 x_19 * x_24 + 28 x_19 * x_26 + 40 x_19 * x_27 + 20 x_19 * x_28
   + 128 x_19 * x_29 + 96 x_19 * x_30 + 12 x_19 * x_31 + 84 x_19 * x_32
   + 40 x_19 * x_33 + 140 x_19 * x_34 + 196 x_19 * x_35 + 20 x_19 * x_36
   + 112 x_19 * x_40 + 144 x_19 * x_41 + 132 x_19 * x_42 + 192 x_19 * x_43
   + 12 x_19 * x_45 + 92 x_19 * x_48 + 48 x_19 * x_49 + 4 x_19 * x_50
   + 32 x_20 * x_21 + 4 x_20 * x_23 + 40 x_20 * x_26 + 144 x_20 * x_27
   + 136 x_20 * x_28 + 148 x_20 * x_29 + 80 x_20 * x_30 + 48 x_20 * x_32
   + 96 x_20 * x_34 + 72 x_20 * x_35 + 200 x_20 * x_36 + 4 x_20 * x_38
   + 156 x_20 * x_39 + 12 x_20 * x_40 + 112 x_20 * x_41 + 48 x_20 * x_42
   + 196 x_20 * x_44 + 40 x_20 * x_45 + 188 x_20 * x_47 + 28 x_20 * x_48
   + 152 x_20 * x_49 + 92 x_20 * x_50 + 128 x_21 * x_22 + 192 x_21 * x_23
   + 192 x_21 * x_24 + 184 x_21 * x_25 + 196 x_21 * x_26 + 164 x_21 * x_28
   + 148 x_21 * x_29 + 96 x_21 * x_33 + 176 x_21 * x_34 + 24 x_21 * x_35
   + 144 x_21 * x_37 + 92 x_21 * x_38 + 120 x_21 * x_39 + 104 x_21 * x_40
   + 24 x_21 * x_41 + 156 x_21 * x_43 + 20 x_21 * x_45 + 164 x_21 * x_46
   + 112 x_21 * x_47 + 96 x_21 * x_48 + 12 x_21 * x_49 + 52 x_21 * x_50
   + 36 x_22 * x_24 + 120 x_22 * x_25 + 124 x_22 * x_27 + 136 x_22 * x_32
   + 128 x_22 * x_33 + 184 x_22 * x_34 + 88 x_22 * x_36 + 168 x_22 * x_37
   + 140 x_22 * x_38 + 132 x_22 * x_40 + 32 x_22 * x_41 + 164 x_22 * x_43
   + 108 x_22 * x_44 + 132 x_22 * x_48 + 112 x_23 * x_25 + 24 x_23 * x_26
   + 72 x_23 * x_27 + 12 x_23 * x_28 + 48 x_23 * x_29 + 32 x_23 * x_30
   + 108 x_23 * x_32 + 156 x_23 * x_34 + 168 x_23 * x_35 + 200 x_23 * x_36
   + 160 x_23 * x_37 + 8 x_23 * x_38 + 152 x_23 * x_39 + 196 x_23 * x_40
   + 60 x_23 * x_41 + 52 x_23 * x_43 + 88 x_23 * x_45 + 156 x_23 * x_46
   + 24 x_23 * x_47 + 188 x_23 * x_48 + 180 x_23 * x_49 + 120 x_23 * x_50
   + 184 x_24 * x_25 + 48 x_24 * x_27 + 88 x_24 * x_28 + 68 x_24 * x_29
   + 24 x_24 * x_32 + 88 x_24 * x_35 + 28 x_24 * x_36 + 196 x_24 * x_38
   + 100 x_24 * x_39 + 116 x_24 * x_40 + 144 x_24 * x_41 + 44 x_24 * x_42
   + 100 x_24 * x_44 + 156 x_24 * x_45 + 36 x_24 * x_46 + 168 x_24 * x_47
   + 80 x_24 * x_48 + 176 x_24 * x_49 + 84 x_24 * x_50 + 160 x_25 * x_26
   + 172 x_25 * x_27 + 100 x_25 * x_30 + 136 x_25 * x_31 + 60 x_25 * x_32
   + 148 x_25 * x_33 + 16 x_25 * x_38 + 124 x_25 * x_39 + 80 x_25 * x_40
   + 128 x_25 * x_41 + 92 x_25 * x_42 + 92 x_25 * x_43 + 180 x_25 * x_44
   + 36 x_25 * x_45 + 176 x_25 * x_47 + 12 x_25 * x_49 + 96 x_25 * x_50
   + 152 x_26 * x_27 + 84 x_26 * x_28 + 172 x_26 * x_30 + 12 x_26 * x_31
   + 96 x_26 * x_35 + 20 x_26 * x_37 + 144 x_26 * x_38 + 140 x_26 * x_39
   + 92 x_26 * x_40 + 156 x_26 * x_41 + 188 x_26 * x_42 + 20 x_26 * x_44
   + 64 x_26 * x_45 + 36 x_26 * x_48 + 16 x_26 * x_49 + 88 x_26 * x_50
   + 120 x_27 * x_28 + 80 x_27 * x_29 + 120 x_27 * x_31 + 196 x_27 * x_32
   + 140 x_27 * x_33 + 108 x_27 * x_34 + 32 x_27 * x_35 + 96 x_27 * x_37
   + 20 x_27 * x_38 + 188 x_27 * x_39 + 184 x_27 * x_40 + 44 x_27 * x_41
   + 80 x_27 * x_44 + 124 x_27 * x_45 + 164 x_27 * x_46 + 192 x_27 * x_47
   + 84 x_27 * x_48 + 152 x_27 * x_49 + 132 x_28 * x_30 + 48 x_28 * x_31
   + 56 x_28 * x_32 + 172 x_28 * x_33 + 176 x_28 * x_34 + 12 x_28 * x_36
   + 188 x_28 * x_37 + 72 x_28 * x_38 + 16 x_28 * x_40 + 200 x_28 * x_42
   + 20 x_28 * x_45 + 36 x_28 * x_46 + 96 x_28 * x_47 + 20 x_28 * x_48
   + 92 x_28 * x_49 + 76 x_28 * x_50 + 168 x_29 * x_30 + 120 x_29 * x_32
   + 116 x_29 * x_33 + 120 x_29 * x_35 + 116 x_29 * x_36 + 72 x_29 * x_38
   + 32 x_29 * x_39 + 160 x_29 * x_40 + 84 x_29 * x_41 + 32 x_29 * x_42
   + 100 x_29 * x_43 + 60 x_29 * x_44 + 44 x_29 * x_45 + 84 x_29 * x_47
   + 80 x_29 * x_49 + 180 x_29 * x_50 + 48 x_30 * x_31 + 68 x_30 * x_32
   + 128 x_30 * x_33 + 200 x_30 * x_36 + 196 x_30 * x_37 + 160 x_30 * x_38
   + 144 x_30 * x_40 + 56 x_30 * x_41 + 176 x_30 * x_43 + 192 x_30 * x_44
   + 32 x_30 * x_46 + 16 x_30 * x_48 + 168 x_30 * x_49 + 124 x_30 * x_50
   + 56 x_31 * x_32 + 172 x_31 * x_33 + 52 x_31 * x_34 + 52 x_31 * x_35
   + 168 x_31 * x_36 + 184 x_31 * x_38 + 44 x_31 * x_39 + 60 x_31 * x_41
   + 60 x_31 * x_42 + 128 x_31 * x_43 + 152 x_31 * x_45 + 168 x_31 * x_47
   + 104 x_31 * x_48 + 172 x_31 * x_49 + 156 x_31 * x_50 + 36 x_32 * x_34
   + 124 x_32 * x_35 + 68 x_32 * x_36 + 184 x_32 * x_37 + 128 x_32 * x_38
   + 104 x_32 * x_39 + 72 x_32 * x_40 + 164 x_32 * x_42 + 132 x_32 * x_44
   + 16 x_32 * x_45 + 188 x_32 * x_47 + 176 x_32 * x_48 + 68 x_32 * x_49
   + 168 x_32 * x_50 + 60 x_33 * x_34 + 24 x_33 * x_35 + 12 x_33 * x_37
   + 200 x_33 * x_39 + 96 x_33 * x_40 + 44 x_33 * x_41 + 172 x_33 * x_42
   + 152 x_33 * x_43 + 148 x_33 * x_44 + 112 x_33 * x_45 + 144 x_33 * x_47
   + 136 x_33 * x_48 + 12 x_33 * x_50 + 168 x_34 * x_36 + 104 x_34 * x_37
   + 132 x_34 * x_38 + 44 x_34 * x_40 + 72 x_34 * x_41 + 120 x_34 * x_42
   + 16 x_34 * x_43 + 124 x_34 * x_44 + 48 x_34 * x_45 + 152 x_34 * x_46
   + 88 x_34 * x_48 + 100 x_34 * x_49 + 136 x_34 * x_50 + 48 x_35 * x_36
   + 40 x_35 * x_37 + 44 x_35 * x_40 + 52 x_35 * x_41 + 104 x_35 * x_44
   + 16 x_35 * x_45 + 80 x_35 * x_47 + 72 x_35 * x_49 + 12 x_36 * x_37
   + 68 x_36 * x_39 + 152 x_36 * x_40 + 76 x_36 * x_41 + 36 x_36 * x_42
   + 16 x_36 * x_43 + 124 x_36 * x_44 + 96 x_36 * x_45 + 4 x_36 * x_46
   + 60 x_36 * x_48 + 176 x_37 * x_38 + 92 x_37 * x_39 + 108 x_37 * x_40
   + 84 x_37 * x_42 + 128 x_37 * x_43 + 20 x_37 * x_44 + 16 x_37 * x_45
   + 180 x_37 * x_46 + 44 x_37 * x_49 + 120 x_38 * x_39 + 172 x_38 * x_40
   + 128 x_38 * x_41 + 88 x_38 * x_42 + 176 x_38 * x_44 + 100 x_38 * x_45
   + 112 x_38 * x_46 + 196 x_38 * x_47 + 100 x_38 * x_48 + 120 x_39 * x_40
   + 128 x_39 * x_41 + 164 x_39 * x_43 + 108 x_39 * x_44 + 72 x_39 * x_45
   + 172 x_39 * x_46 + 28 x_39 * x_47 + 12 x_39 * x_48 + 80 x_39 * x_49
   + 8 x_40 * x_41 + 124 x_40 * x_42 + 100 x_40 * x_43 + 144 x_40 * x_44
   + 64 x_40 * x_45 + 140 x_40 * x_47 + 4 x_40 * x_48 + 112 x_40 * x_50
   + 196 x_41 * x_42 + 48 x_41 * x_46 + 20 x_41 * x_48 + 152 x_41 * x_49
   + 184 x_41 * x_50 + 124 x_42 * x_43 + 168 x_42 * x_44 + 148 x_42 * x_45
   + 12 x_42 * x_46 + 128 x_42 * x_47 + 28 x_42 * x_48 + 148 x_42 * x_49
   + 92 x_42 * x_50 + 100 x_43 * x_44 + 96 x_43 * x_45 + 96 x_43 * x_48
   + 104 x_43 * x_49 + 24 x_43 * x_50 + 172 x_44 * x_45 + 120 x_44 * x_48
   + 188 x_44 * x_49 + 188 x_45 * x_46 + 76 x_45 * x_47 + 88 x_45 * x_48
   + 200 x_45 * x_49 + 104 x_45 * x_50 + 64 x_46 * x_47 + 96 x_46 * x_48
   + 116 x_46 * x_49 + 48 x_46 * x_50 + 152 x_47 * x_48 + 4 x_48 * x_49
   + 152 x_48 * x_50 + 200 x_49 * x_50 ] / 2 
Subject To
 R0: 14 x_1 + 12 x_2 + 18 x_3 + 3 x_4 + 8 x_5 + 11 x_6 + 18 x_7 + 5 x_8
   + 23 x_9 + 18 x_10 + x_11 + 12 x_12 + 13 x_13 + 20 x_14 + 20 x_15
   + 24 x_16 + 24 x_17 + 16 x_18 + 13 x_19 + 21 x_20 + 5 x_21 + 3 x_22
   + 25 x_23 + 11 x_24 + 18 x_25 + 5 x_26 + x_27 + 23 x_28 + 18 x_29
   + 3 x_30 + 13 x_31 + 15 x_32 + 10 x_33 + 8 x_34 + 19 x_35 + 14 x_36
   + 12 x_37 + 24 x_38 + 22 x_39 + 12 x_40 + 18 x_41 + 12 x_42 + 3 x_43
   + 6 x_44 + 5 x_45 + 22 x_46 + 11 x_47 + x_48 + 5 x_49 + 17 x_50 <= 61
Bounds
Binaries
 x_1 x_2 x_3 x_4 x_5 x_6 x_7 x_8 x_9 x_10 x_11 x_12 x_13 x_14 x_15 x_16
 x_17 x_18 x_19 x_20 x_21 x_22 x_23 x_24 x_25 x_26 x_27 x_28 x_29 x_30 x_31
 x_32 x_33 x_34 x_35 x_36 x_37 x_38 x_39 x_40 x_41 x_42 x_43 x_44 x_45 x_46
 x_47 x_48 x_49 x_50
End
